Route #1: 7 52 17 50 25 51 19 56 26 32 11 59
Route #2: 27 13 73 40 10 33 45 4 41 18
Route #3: 54 12 39 66 67 60 15 36 8
Route #4: 68 35 53 28 14 55 20 9 47
Route #5: 69 3 63 74 2 44 65 43 42 57 24 64 34
Route #6: 75 29 23 62 22 48 37 70 72 61 71 21 38 16 58
Route #7: 76 31 49 6 30 46 5
cost 701